35
1 0 7
2 0 24
2 1 43
3 0 21
3 1 7
3 2 24
4 0 25
4 1 23
4 2 33
4 3 6
5 0 50
5 1 38
5 2 11
5 3 2
5 4 36
6 0 14
6 1 40
6 2 30
6 3 45
6 4 37
6 5 50
7 0 4
7 1 33
7 2 2
7 3 16
7 4 47
7 5 15
7 6 23
8 0 17
8 1 9
8 2 25
8 3 42
8 4 13
8 5 37
8 6 40
8 7 1
9 0 19
9 1 44
9 2 6
9 3 18
9 4 40
9 5 35
9 6 17
9 7 32
9 8 35
10 0 7
10 1 18
10 2 9
10 3 31
10 4 27
10 5 41
10 6 36
10 7 18
10 8 9
10 9 33
11 0 14
11 1 11
11 2 31
11 3 12
11 4 20
11 5 7
11 6 31
11 7 21
11 8 9
11 9 32
11 10 50
12 0 3
12 1 1
12 2 28
12 3 46
12 4 42
12 5 15
12 6 17
12 7 6
12 8 6
12 9 47
12 10 3
12 11 7
13 0 30
13 1 48
13 2 23
13 3 47
13 4 34
13 5 17
13 6 48
13 7 49
13 8 45
13 9 31
13 10 2
13 11 42
13 12 2
14 0 23
14 1 35
14 2 4
14 3 18
14 4 35
14 5 42
14 6 36
14 7 20
14 8 39
14 9 38
14 10 35
14 11 12
14 12 33
14 13 2
15 0 1
15 1 6
15 2 26
15 3 38
15 4 32
15 5 32
15 6 35
15 7 23
15 8 4
15 9 16
15 10 7
15 11 26
15 12 28
15 13 47
15 14 33
16 0 43
16 1 3
16 2 47
16 3 16
16 4 4
16 5 19
16 6 5
16 7 31
16 8 26
16 9 23
16 10 47
16 11 41
16 12 33
16 13 15
16 14 27
16 15 29
17 0 4
17 1 13
17 2 9
17 3 33
17 4 39
17 5 38
17 6 27
17 7 50
17 8 32
17 9 19
17 10 18
17 11 19
17 12 6
17 13 3
17 14 13
17 15 14
17 16 45
18 0 49
18 1 28
18 2 35
18 3 30
18 4 50
18 5 29
18 6 6
18 7 47
18 8 5
18 9 45
18 10 48
18 11 12
18 12 50
18 13 10
18 14 46
18 15 38
18 16 47
18 17 44
19 0 14
19 1 15
19 2 16
19 3 35
19 4 49
19 5 23
19 6 32
19 7 39
19 8 13
19 9 50
19 10 46
19 11 49
19 12 35
19 13 19
19 14 36
19 15 29
19 16 21
19 17 32
19 18 9
20 0 21
20 1 31
20 2 35
20 3 44
20 4 10
20 5 25
20 6 19
20 7 19
20 8 29
20 9 31
20 10 3
20 11 32
20 12 9
20 13 50
20 14 14
20 15 1
20 16 34
20 17 31
20 18 29
20 19 6
21 0 29
21 1 47
21 2 4
21 3 45
21 4 21
21 5 38
21 6 3
21 7 43
21 8 19
21 9 37
21 10 10
21 11 4
21 12 34
21 13 46
21 14 22
21 15 34
21 16 6
21 17 16
21 18 24
21 19 25
21 20 33
22 0 33
22 1 21
22 2 29
22 3 3
22 4 20
22 5 9
22 6 28
22 7 37
22 8 40
22 9 24
22 10 41
22 11 25
22 12 41
22 13 36
22 14 19
22 15 42
22 16 50
22 17 46
22 18 37
22 19 37
22 20 16
22 21 31
23 0 49
23 1 27
23 2 12
23 3 18
23 4 2
23 5 50
23 6 6
23 7 11
23 8 2
23 9 32
23 10 21
23 11 16
23 12 36
23 13 10
23 14 4
23 15 30
23 16 40
23 17 28
23 18 22
23 19 4
23 20 22
23 21 32
23 22 34
24 0 15
24 1 20
24 2 2
24 3 40
24 4 42
24 5 26
24 6 20
24 7 25
24 8 9
24 9 18
24 10 41
24 11 28
24 12 3
24 13 22
24 14 41
24 15 25
24 16 7
24 17 23
24 18 30
24 19 32
24 20 47
24 21 49
24 22 31
24 23 44
25 0 47
25 1 46
25 2 42
25 3 39
25 4 24
25 5 37
25 6 3
25 7 39
25 8 46
25 9 45
25 10 3
25 11 32
25 12 13
25 13 20
25 14 41
25 15 21
25 16 40
25 17 7
25 18 40
25 19 30
25 20 50
25 21 21
25 22 47
25 23 8
25 24 16
26 0 9
26 1 9
26 2 36
26 3 44
26 4 17
26 5 18
26 6 50
26 7 3
26 8 30
26 9 3
26 10 19
26 11 25
26 12 27
26 13 26
26 14 1
26 15 4
26 16 39
26 17 40
26 18 5
26 19 39
26 20 35
26 21 40
26 22 7
26 23 35
26 24 39
26 25 39
27 0 4
27 1 15
27 2 34
27 3 36
27 4 2
27 5 2
27 6 35
27 7 11
27 8 40
27 9 34
27 10 2
27 11 5
27 12 11
27 13 46
27 14 7
27 15 49
27 16 19
27 17 22
27 18 50
27 19 7
27 20 7
27 21 13
27 22 9
27 23 35
27 24 9
27 25 44
27 26 5
28 0 4
28 1 45
28 2 49
28 3 24
28 4 36
28 5 44
28 6 18
28 7 16
28 8 6
28 9 25
28 10 22
28 11 39
28 12 21
28 13 48
28 14 31
28 15 35
28 16 44
28 17 47
28 18 11
28 19 31
28 20 24
28 21 33
28 22 35
28 23 33
28 24 48
28 25 46
28 26 31
28 27 27
29 0 20
29 1 16
29 2 27
29 3 37
29 4 4
29 5 6
29 6 19
29 7 14
29 8 49
29 9 6
29 10 23
29 11 45
29 12 23
29 13 21
29 14 6
29 15 30
29 16 50
29 17 16
29 18 17
29 19 26
29 20 34
29 21 23
29 22 6
29 23 6
29 24 2
29 25 47
29 26 19
29 27 35
29 28 35
30 0 8
30 1 34
30 2 40
30 3 18
30 4 31
30 5 45
30 6 18
30 7 27
30 8 36
30 9 44
30 10 13
30 11 44
30 12 20
30 13 26
30 14 36
30 15 1
30 16 22
30 17 45
30 18 44
30 19 18
30 20 15
30 21 21
30 22 19
30 23 4
30 24 4
30 25 42
30 26 39
30 27 26
30 28 47
30 29 4
31 0 1
31 1 17
31 2 3
31 3 47
31 4 27
31 5 28
31 6 3
31 7 48
31 8 28
31 9 6
31 10 7
31 11 17
31 12 35
31 13 23
31 14 44
31 15 32
31 16 42
31 17 33
31 18 50
31 19 20
31 20 4
31 21 35
31 22 31
31 23 6
31 24 3
31 25 1
31 26 10
31 27 16
31 28 1
31 29 37
31 30 29
32 0 20
32 1 22
32 2 42
32 3 10
32 4 27
32 5 6
32 6 6
32 7 24
32 8 7
32 9 41
32 10 5
32 11 31
32 12 11
32 13 9
32 14 3
32 15 27
32 16 43
32 17 19
32 18 30
32 19 32
32 20 34
32 21 28
32 22 36
32 23 31
32 24 50
32 25 17
32 26 16
32 27 31
32 28 46
32 29 32
32 30 12
32 31 6
33 0 33
33 1 43
33 2 39
33 3 38
33 4 46
33 5 44
33 6 49
33 7 46
33 8 2
33 9 38
33 10 3
33 11 11
33 12 9
33 13 40
33 14 48
33 15 10
33 16 36
33 17 26
33 18 45
33 19 2
33 20 50
33 21 33
33 22 15
33 23 15
33 24 30
33 25 9
33 26 21
33 27 27
33 28 2
33 29 4
33 30 38
33 31 15
33 32 29
34 0 17
34 1 47
34 2 38
34 3 25
34 4 14
34 5 29
34 6 33
34 7 3
34 8 11
34 9 24
34 10 6
34 11 37
34 12 17
34 13 7
34 14 39
34 15 1
34 16 40
34 17 14
34 18 11
34 19 17
34 20 49
34 21 3
34 22 27
34 23 3
34 24 44
34 25 1
34 26 41
34 27 36
34 28 23
34 29 4
34 30 25
34 31 45
34 32 19
34 33 3
